problems/GracefulDoubleWheelGraphs/GracefulDoubleWheelGraphs-models/compact/O2/lingeling/model-n07-solution000001.solution
language Essence 1.3

letting colouring be
        function(0 --> 8, 1 --> 28, 2 --> 21, 3 --> 6, 4 --> 18, 5 --> 22, 6 --> 27, 7 --> 13, 8 --> 2, 9 --> 26,
                 10 --> 1, 11 --> 17, 12 --> 14, 13 --> 23, 14 --> 0)
letting edgeID be
        function(0 --> 20, 1 --> 7, 2 --> 15, 3 --> 12, 4 --> 4, 5 --> 5, 6 --> 19, 7 --> 11, 8 --> 24, 9 --> 25,
                 10 --> 16, 11 --> 3, 12 --> 9, 13 --> 10, 14 --> 8, 15 --> 28, 16 --> 21, 17 --> 6, 18 --> 18,
                 19 --> 22, 20 --> 27, 21 --> 13, 22 --> 2, 23 --> 26, 24 --> 1, 25 --> 17, 26 --> 14, 27 --> 23)
